p gcnf 248 1484 124
{0} -139 -125 -15 -1 0
{0} -147 -125 -23 -1 0
{0} -163 -125 -39 -1 0
{0} -167 -125 -43 -1 0
{0} -179 -125 -55 -1 0
{0} -183 -125 -59 -1 0
{0} -190 -125 -66 -1 0
{0} -194 -125 -70 -1 0
{0} -206 -125 -82 -1 0
{0} -210 -125 -86 -1 0
{0} -226 -125 -102 -1 0
{0} -234 -125 -110 -1 0
{0} -147 -126 -23 -2 0
{0} -164 -126 -40 -2 0
{0} -167 -126 -43 -2 0
{0} -184 -126 -60 -2 0
{0} -189 -126 -65 -2 0
{0} -206 -126 -82 -2 0
{0} -209 -126 -85 -2 0
{0} -226 -126 -102 -2 0
{0} -145 -127 -21 -3 0
{0} -146 -127 -22 -3 0
{0} -147 -127 -23 -3 0
{0} -148 -127 -24 -3 0
{0} -149 -127 -25 -3 0
{0} -165 -127 -41 -3 0
{0} -166 -127 -42 -3 0
{0} -167 -127 -43 -3 0
{0} -168 -127 -44 -3 0
{0} -169 -127 -45 -3 0
{0} -185 -127 -61 -3 0
{0} -186 -127 -62 -3 0
{0} -187 -127 -63 -3 0
{0} -188 -127 -64 -3 0
{0} -204 -127 -80 -3 0
{0} -205 -127 -81 -3 0
{0} -206 -127 -82 -3 0
{0} -207 -127 -83 -3 0
{0} -208 -127 -84 -3 0
{0} -224 -127 -100 -3 0
{0} -225 -127 -101 -3 0
{0} -226 -127 -102 -3 0
{0} -227 -127 -103 -3 0
{0} -228 -127 -104 -3 0
{0} -147 -128 -23 -4 0
{0} -160 -128 -36 -4 0
{0} -167 -128 -43 -4 0
{0} -180 -128 -56 -4 0
{0} -193 -128 -69 -4 0
{0} -206 -128 -82 -4 0
{0} -213 -128 -89 -4 0
{0} -226 -128 -102 -4 0
{0} -135 -129 -11 -5 0
{0} -147 -129 -23 -5 0
{0} -161 -129 -37 -5 0
{0} -167 -129 -43 -5 0
{0} -175 -129 -51 -5 0
{0} -181 -129 -57 -5 0
{0} -192 -129 -68 -5 0
{0} -198 -129 -74 -5 0
{0} -206 -129 -82 -5 0
{0} -212 -129 -88 -5 0
{0} -226 -129 -102 -5 0
{0} -238 -129 -114 -5 0
{0} -139 -130 -15 -6 0
{0} -163 -130 -39 -6 0
{0} -172 -130 -48 -6 0
{0} -178 -130 -54 -6 0
{0} -195 -130 -71 -6 0
{0} -201 -130 -77 -6 0
{0} -210 -130 -86 -6 0
{0} -234 -130 -110 -6 0
{0} -143 -131 -19 -7 0
{0} -164 -131 -40 -7 0
{0} -172 -131 -48 -7 0
{0} -179 -131 -55 -7 0
{0} -183 -131 -59 -7 0
{0} -190 -131 -66 -7 0
{0} -194 -131 -70 -7 0
{0} -201 -131 -77 -7 0
{0} -209 -131 -85 -7 0
{0} -230 -131 -106 -7 0
{0} -170 -132 -46 -8 0
{0} -171 -132 -47 -8 0
{0} -172 -132 -48 -8 0
{0} -173 -132 -49 -8 0
{0} -174 -132 -50 -8 0
{0} -185 -132 -61 -8 0
{0} -186 -132 -62 -8 0
{0} -187 -132 -63 -8 0
{0} -188 -132 -64 -8 0
{0} -199 -132 -75 -8 0
{0} -200 -132 -76 -8 0
{0} -201 -132 -77 -8 0
{0} -202 -132 -78 -8 0
{0} -203 -132 -79 -8 0
{0} -141 -133 -17 -9 0
{0} -160 -133 -36 -9 0
{0} -172 -133 -48 -9 0
{0} -175 -133 -51 -9 0
{0} -181 -133 -57 -9 0
{0} -192 -133 -68 -9 0
{0} -198 -133 -74 -9 0
{0} -201 -133 -77 -9 0
{0} -213 -133 -89 -9 0
{0} -232 -133 -108 -9 0
{0} -135 -134 -11 -10 0
{0} -161 -134 -37 -10 0
{0} -172 -134 -48 -10 0
{0} -176 -134 -52 -10 0
{0} -197 -134 -73 -10 0
{0} -201 -134 -77 -10 0
{0} -212 -134 -88 -10 0
{0} -238 -134 -114 -10 0
{0} -139 -135 -15 -11 0
{0} -144 -135 -20 -11 0
{0} -149 -135 -25 -11 0
{0} -153 -135 -29 -11 0
{0} -158 -135 -34 -11 0
{0} -163 -135 -39 -11 0
{0} -168 -135 -44 -11 0
{0} -173 -135 -49 -11 0
{0} -177 -135 -53 -11 0
{0} -182 -135 -58 -11 0
{0} -191 -135 -67 -11 0
{0} -196 -135 -72 -11 0
{0} -200 -135 -76 -11 0
{0} -205 -135 -81 -11 0
{0} -210 -135 -86 -11 0
{0} -215 -135 -91 -11 0
{0} -220 -135 -96 -11 0
{0} -224 -135 -100 -11 0
{0} -229 -135 -105 -11 0
{0} -234 -135 -110 -11 0
{0} -239 -135 -115 -11 0
{0} -244 -135 -120 -11 0
{0} -154 -136 -30 -12 0
{0} -159 -136 -35 -12 0
{0} -164 -136 -40 -12 0
{0} -169 -136 -45 -12 0
{0} -174 -136 -50 -12 0
{0} -177 -136 -53 -12 0
{0} -182 -136 -58 -12 0
{0} -191 -136 -67 -12 0
{0} -196 -136 -72 -12 0
{0} -199 -136 -75 -12 0
{0} -204 -136 -80 -12 0
{0} -209 -136 -85 -12 0
{0} -214 -136 -90 -12 0
{0} -219 -136 -95 -12 0
{0} -175 -137 -51 -13 0
{0} -176 -137 -52 -13 0
{0} -177 -137 -53 -13 0
{0} -178 -137 -54 -13 0
{0} -179 -137 -55 -13 0
{0} -180 -137 -56 -13 0
{0} -181 -137 -57 -13 0
{0} -182 -137 -58 -13 0
{0} -183 -137 -59 -13 0
{0} -184 -137 -60 -13 0
{0} -185 -137 -61 -13 0
{0} -186 -137 -62 -13 0
{0} -187 -137 -63 -13 0
{0} -188 -137 -64 -13 0
{0} -189 -137 -65 -13 0
{0} -190 -137 -66 -13 0
{0} -191 -137 -67 -13 0
{0} -192 -137 -68 -13 0
{0} -193 -137 -69 -13 0
{0} -194 -137 -70 -13 0
{0} -195 -137 -71 -13 0
{0} -196 -137 -72 -13 0
{0} -197 -137 -73 -13 0
{0} -198 -137 -74 -13 0
{0} -150 -138 -26 -14 0
{0} -155 -138 -31 -14 0
{0} -160 -138 -36 -14 0
{0} -165 -138 -41 -14 0
{0} -170 -138 -46 -14 0
{0} -177 -138 -53 -14 0
{0} -182 -138 -58 -14 0
{0} -191 -138 -67 -14 0
{0} -196 -138 -72 -14 0
{0} -203 -138 -79 -14 0
{0} -208 -138 -84 -14 0
{0} -213 -138 -89 -14 0
{0} -218 -138 -94 -14 0
{0} -223 -138 -99 -14 0
{0} -140 -139 -16 -15 0
{0} -145 -139 -21 -15 0
{0} -151 -139 -27 -15 0
{0} -156 -139 -32 -15 0
{0} -161 -139 -37 -15 0
{0} -166 -139 -42 -15 0
{0} -171 -139 -47 -15 0
{0} -177 -139 -53 -15 0
{0} -182 -139 -58 -15 0
{0} -191 -139 -67 -15 0
{0} -196 -139 -72 -15 0
{0} -202 -139 -78 -15 0
{0} -207 -139 -83 -15 0
{0} -212 -139 -88 -15 0
{0} -217 -139 -93 -15 0
{0} -222 -139 -98 -15 0
{0} -228 -139 -104 -15 0
{0} -233 -139 -109 -15 0
{0} -238 -139 -114 -15 0
{0} -243 -139 -119 -15 0
{0} -248 -139 -124 -15 0
{0} -152 -140 -28 -16 0
{0} -163 -140 -39 -16 0
{0} -176 -140 -52 -16 0
{0} -197 -140 -73 -16 0
{0} -210 -140 -86 -16 0
{0} -221 -140 -97 -16 0
{0} -234 -140 -110 -16 0
{0} -152 -141 -28 -17 0
{0} -164 -141 -40 -17 0
{0} -175 -141 -51 -17 0
{0} -181 -141 -57 -17 0
{0} -192 -141 -68 -17 0
{0} -198 -141 -74 -17 0
{0} -209 -141 -85 -17 0
{0} -221 -141 -97 -17 0
{0} -240 -141 -116 -17 0
{0} -150 -142 -26 -18 0
{0} -151 -142 -27 -18 0
{0} -152 -142 -28 -18 0
{0} -153 -142 -29 -18 0
{0} -154 -142 -30 -18 0
{0} -185 -142 -61 -18 0
{0} -186 -142 -62 -18 0
{0} -187 -142 -63 -18 0
{0} -188 -142 -64 -18 0
{0} -219 -142 -95 -18 0
{0} -220 -142 -96 -18 0
{0} -221 -142 -97 -18 0
{0} -222 -142 -98 -18 0
{0} -223 -142 -99 -18 0
{0} -152 -143 -28 -19 0
{0} -160 -143 -36 -19 0
{0} -179 -143 -55 -19 0
{0} -183 -143 -59 -19 0
{0} -190 -143 -66 -19 0
{0} -194 -143 -70 -19 0
{0} -213 -143 -89 -19 0
{0} -221 -143 -97 -19 0
{0} -242 -143 -118 -19 0
{0} -152 -144 -28 -20 0
{0} -161 -144 -37 -20 0
{0} -178 -144 -54 -20 0
{0} -195 -144 -71 -20 0
{0} -212 -144 -88 -20 0
{0} -221 -144 -97 -20 0
{0} -238 -144 -114 -20 0
{0} -157 -145 -33 -21 0
{0} -163 -145 -39 -21 0
{0} -175 -145 -51 -21 0
{0} -181 -145 -57 -21 0
{0} -192 -145 -68 -21 0
{0} -198 -145 -74 -21 0
{0} -210 -145 -86 -21 0
{0} -216 -145 -92 -21 0
{0} -234 -145 -110 -21 0
{0} -246 -145 -122 -21 0
{0} -157 -146 -33 -22 0
{0} -164 -146 -40 -22 0
{0} -180 -146 -56 -22 0
{0} -193 -146 -69 -22 0
{0} -209 -146 -85 -22 0
{0} -216 -146 -92 -22 0
{0} -246 -146 -122 -22 0
{0} -155 -147 -31 -23 0
{0} -156 -147 -32 -23 0
{0} -157 -147 -33 -23 0
{0} -158 -147 -34 -23 0
{0} -159 -147 -35 -23 0
{0} -185 -147 -61 -23 0
{0} -186 -147 -62 -23 0
{0} -187 -147 -63 -23 0
{0} -188 -147 -64 -23 0
{0} -214 -147 -90 -23 0
{0} -215 -147 -91 -23 0
{0} -216 -147 -92 -23 0
{0} -217 -147 -93 -23 0
{0} -218 -147 -94 -23 0
{0} -244 -147 -120 -23 0
{0} -245 -147 -121 -23 0
{0} -246 -147 -122 -23 0
{0} -247 -147 -123 -23 0
{0} -248 -147 -124 -23 0
{0} -157 -148 -33 -24 0
{0} -160 -148 -36 -24 0
{0} -184 -148 -60 -24 0
{0} -189 -148 -65 -24 0
{0} -213 -148 -89 -24 0
{0} -216 -148 -92 -24 0
{0} -246 -148 -122 -24 0
{0} -157 -149 -33 -25 0
{0} -161 -149 -37 -25 0
{0} -179 -149 -55 -25 0
{0} -183 -149 -59 -25 0
{0} -190 -149 -66 -25 0
{0} -194 -149 -70 -25 0
{0} -212 -149 -88 -25 0
{0} -216 -149 -92 -25 0
{0} -238 -149 -114 -25 0
{0} -246 -149 -122 -25 0
{0} -179 -150 -55 -26 0
{0} -183 -150 -59 -26 0
{0} -190 -150 -66 -26 0
{0} -194 -150 -70 -26 0
{0} -231 -150 -107 -26 0
{0} -235 -150 -111 -26 0
{0} -163 -151 -39 -27 0
{0} -171 -151 -47 -27 0
{0} -184 -151 -60 -27 0
{0} -189 -151 -65 -27 0
{0} -202 -151 -78 -27 0
{0} -210 -151 -86 -27 0
{0} -231 -151 -107 -27 0
{0} -234 -151 -110 -27 0
{0} -185 -152 -61 -28 0
{0} -186 -152 -62 -28 0
{0} -187 -152 -63 -28 0
{0} -188 -152 -64 -28 0
{0} -229 -152 -105 -28 0
{0} -230 -152 -106 -28 0
{0} -231 -152 -107 -28 0
{0} -232 -152 -108 -28 0
{0} -233 -152 -109 -28 0
{0} -161 -153 -37 -29 0
{0} -173 -153 -49 -29 0
{0} -180 -153 -56 -29 0
{0} -193 -153 -69 -29 0
{0} -200 -153 -76 -29 0
{0} -212 -153 -88 -29 0
{0} -231 -153 -107 -29 0
{0} -238 -153 -114 -29 0
{0} -175 -154 -51 -30 0
{0} -181 -154 -57 -30 0
{0} -192 -154 -68 -30 0
{0} -198 -154 -74 -30 0
{0} -231 -154 -107 -30 0
{0} -237 -154 -113 -30 0
{0} -159 -155 -35 -31 0
{0} -167 -155 -43 -31 0
{0} -178 -155 -54 -31 0
{0} -195 -155 -71 -31 0
{0} -206 -155 -82 -31 0
{0} -214 -155 -90 -31 0
{0} -226 -155 -102 -31 0
{0} -235 -155 -111 -31 0
{0} -163 -156 -39 -32 0
{0} -167 -156 -43 -32 0
{0} -179 -156 -55 -32 0
{0} -183 -156 -59 -32 0
{0} -190 -156 -66 -32 0
{0} -194 -156 -70 -32 0
{0} -206 -156 -82 -32 0
{0} -210 -156 -86 -32 0
{0} -226 -156 -102 -32 0
{0} -234 -156 -110 -32 0
{0} -165 -157 -41 -33 0
{0} -166 -157 -42 -33 0
{0} -167 -157 -43 -33 0
{0} -168 -157 -44 -33 0
{0} -169 -157 -45 -33 0
{0} -185 -157 -61 -33 0
{0} -186 -157 -62 -33 0
{0} -187 -157 -63 -33 0
{0} -188 -157 -64 -33 0
{0} -204 -157 -80 -33 0
{0} -205 -157 -81 -33 0
{0} -206 -157 -82 -33 0
{0} -207 -157 -83 -33 0
{0} -208 -157 -84 -33 0
{0} -224 -157 -100 -33 0
{0} -225 -157 -101 -33 0
{0} -226 -157 -102 -33 0
{0} -227 -157 -103 -33 0
{0} -228 -157 -104 -33 0
{0} -161 -158 -37 -34 0
{0} -167 -158 -43 -34 0
{0} -175 -158 -51 -34 0
{0} -181 -158 -57 -34 0
{0} -192 -158 -68 -34 0
{0} -198 -158 -74 -34 0
{0} -206 -158 -82 -34 0
{0} -212 -158 -88 -34 0
{0} -226 -158 -102 -34 0
{0} -238 -158 -114 -34 0
{0} -167 -159 -43 -35 0
{0} -176 -159 -52 -35 0
{0} -197 -159 -73 -35 0
{0} -206 -159 -82 -35 0
{0} -218 -159 -94 -35 0
{0} -226 -159 -102 -35 0
{0} -237 -159 -113 -35 0
{0} -177 -160 -53 -36 0
{0} -182 -160 -58 -36 0
{0} -191 -160 -67 -36 0
{0} -196 -160 -72 -36 0
{0} -225 -160 -101 -36 0
{0} -230 -160 -106 -36 0
{0} -235 -160 -111 -36 0
{0} -240 -160 -116 -36 0
{0} -245 -160 -121 -36 0
{0} -163 -161 -39 -37 0
{0} -168 -161 -44 -37 0
{0} -173 -161 -49 -37 0
{0} -177 -161 -53 -37 0
{0} -182 -161 -58 -37 0
{0} -191 -161 -67 -37 0
{0} -196 -161 -72 -37 0
{0} -200 -161 -76 -37 0
{0} -205 -161 -81 -37 0
{0} -210 -161 -86 -37 0
{0} -215 -161 -91 -37 0
{0} -220 -161 -96 -37 0
{0} -224 -161 -100 -37 0
{0} -229 -161 -105 -37 0
{0} -234 -161 -110 -37 0
{0} -239 -161 -115 -37 0
{0} -244 -161 -120 -37 0
{0} -175 -162 -51 -38 0
{0} -176 -162 -52 -38 0
{0} -177 -162 -53 -38 0
{0} -178 -162 -54 -38 0
{0} -179 -162 -55 -38 0
{0} -180 -162 -56 -38 0
{0} -181 -162 -57 -38 0
{0} -182 -162 -58 -38 0
{0} -183 -162 -59 -38 0
{0} -184 -162 -60 -38 0
{0} -185 -162 -61 -38 0
{0} -186 -162 -62 -38 0
{0} -187 -162 -63 -38 0
{0} -188 -162 -64 -38 0
{0} -189 -162 -65 -38 0
{0} -190 -162 -66 -38 0
{0} -191 -162 -67 -38 0
{0} -192 -162 -68 -38 0
{0} -193 -162 -69 -38 0
{0} -194 -162 -70 -38 0
{0} -195 -162 -71 -38 0
{0} -196 -162 -72 -38 0
{0} -197 -162 -73 -38 0
{0} -198 -162 -74 -38 0
{0} -166 -163 -42 -39 0
{0} -171 -163 -47 -39 0
{0} -177 -163 -53 -39 0
{0} -182 -163 -58 -39 0
{0} -191 -163 -67 -39 0
{0} -196 -163 -72 -39 0
{0} -202 -163 -78 -39 0
{0} -207 -163 -83 -39 0
{0} -212 -163 -88 -39 0
{0} -217 -163 -93 -39 0
{0} -222 -163 -98 -39 0
{0} -228 -163 -104 -39 0
{0} -233 -163 -109 -39 0
{0} -238 -163 -114 -39 0
{0} -243 -163 -119 -39 0
{0} -248 -163 -124 -39 0
{0} -177 -164 -53 -40 0
{0} -182 -164 -58 -40 0
{0} -191 -164 -67 -40 0
{0} -196 -164 -72 -40 0
{0} -227 -164 -103 -40 0
{0} -232 -164 -108 -40 0
{0} -237 -164 -113 -40 0
{0} -242 -164 -118 -40 0
{0} -247 -164 -123 -40 0
{0} -169 -165 -45 -41 0
{0} -176 -165 -52 -41 0
{0} -197 -165 -73 -41 0
{0} -204 -165 -80 -41 0
{0} -216 -165 -92 -41 0
{0} -235 -165 -111 -41 0
{0} -246 -165 -122 -41 0
{0} -175 -166 -51 -42 0
{0} -181 -166 -57 -42 0
{0} -192 -166 -68 -42 0
{0} -198 -166 -74 -42 0
{0} -210 -166 -86 -42 0
{0} -216 -166 -92 -42 0
{0} -234 -166 -110 -42 0
{0} -246 -166 -122 -42 0
{0} -185 -167 -61 -43 0
{0} -186 -167 -62 -43 0
{0} -187 -167 -63 -43 0
{0} -188 -167 -64 -43 0
{0} -214 -167 -90 -43 0
{0} -215 -167 -91 -43 0
{0} -216 -167 -92 -43 0
{0} -217 -167 -93 -43 0
{0} -218 -167 -94 -43 0
{0} -244 -167 -120 -43 0
{0} -245 -167 -121 -43 0
{0} -246 -167 -122 -43 0
{0} -247 -167 -123 -43 0
{0} -248 -167 -124 -43 0
{0} -179 -168 -55 -44 0
{0} -183 -168 -59 -44 0
{0} -190 -168 -66 -44 0
{0} -194 -168 -70 -44 0
{0} -212 -168 -88 -44 0
{0} -216 -168 -92 -44 0
{0} -238 -168 -114 -44 0
{0} -246 -168 -122 -44 0
{0} -178 -169 -54 -45 0
{0} -195 -169 -71 -45 0
{0} -208 -169 -84 -45 0
{0} -216 -169 -92 -45 0
{0} -237 -169 -113 -45 0
{0} -246 -169 -122 -45 0
{0} -175 -170 -51 -46 0
{0} -181 -170 -57 -46 0
{0} -192 -170 -68 -46 0
{0} -198 -170 -74 -46 0
{0} -235 -170 -111 -46 0
{0} -241 -170 -117 -46 0
{0} -180 -171 -56 -47 0
{0} -193 -171 -69 -47 0
{0} -210 -171 -86 -47 0
{0} -222 -171 -98 -47 0
{0} -234 -171 -110 -47 0
{0} -241 -171 -117 -47 0
{0} -185 -172 -61 -48 0
{0} -186 -172 -62 -48 0
{0} -187 -172 -63 -48 0
{0} -188 -172 -64 -48 0
{0} -239 -172 -115 -48 0
{0} -240 -172 -116 -48 0
{0} -241 -172 -117 -48 0
{0} -242 -172 -118 -48 0
{0} -243 -172 -119 -48 0
{0} -184 -173 -60 -49 0
{0} -189 -173 -65 -49 0
{0} -212 -173 -88 -49 0
{0} -220 -173 -96 -49 0
{0} -238 -173 -114 -49 0
{0} -241 -173 -117 -49 0
{0} -179 -174 -55 -50 0
{0} -183 -174 -59 -50 0
{0} -190 -174 -66 -50 0
{0} -194 -174 -70 -50 0
{0} -237 -174 -113 -50 0
{0} -241 -174 -117 -50 0
{0} -179 -175 -55 -51 0
{0} -183 -175 -59 -51 0
{0} -190 -175 -66 -51 0
{0} -194 -175 -70 -51 0
{0} -203 -175 -79 -51 0
{0} -207 -175 -83 -51 0
{0} -211 -175 -87 -51 0
{0} -215 -175 -91 -51 0
{0} -219 -175 -95 -51 0
{0} -228 -175 -104 -51 0
{0} -232 -175 -108 -51 0
{0} -236 -175 -112 -51 0
{0} -240 -175 -116 -51 0
{0} -244 -175 -120 -51 0
{0} -184 -176 -60 -52 0
{0} -189 -176 -65 -52 0
{0} -208 -176 -84 -52 0
{0} -211 -176 -87 -52 0
{0} -214 -176 -90 -52 0
{0} -233 -176 -109 -52 0
{0} -236 -176 -112 -52 0
{0} -239 -176 -115 -52 0
{0} -185 -177 -61 -53 0
{0} -186 -177 -62 -53 0
{0} -187 -177 -63 -53 0
{0} -188 -177 -64 -53 0
{0} -209 -177 -85 -53 0
{0} -210 -177 -86 -53 0
{0} -211 -177 -87 -53 0
{0} -212 -177 -88 -53 0
{0} -213 -177 -89 -53 0
{0} -234 -177 -110 -53 0
{0} -235 -177 -111 -53 0
{0} -236 -177 -112 -53 0
{0} -237 -177 -113 -53 0
{0} -238 -177 -114 -53 0
{0} -180 -178 -56 -54 0
{0} -193 -178 -69 -54 0
{0} -204 -178 -80 -54 0
{0} -211 -178 -87 -54 0
{0} -218 -178 -94 -54 0
{0} -229 -178 -105 -54 0
{0} -236 -178 -112 -54 0
{0} -243 -178 -119 -54 0
{0} -181 -179 -57 -55 0
{0} -192 -179 -68 -55 0
{0} -198 -179 -74 -55 0
{0} -199 -179 -75 -55 0
{0} -205 -179 -81 -55 0
{0} -211 -179 -87 -55 0
{0} -217 -179 -93 -55 0
{0} -223 -179 -99 -55 0
{0} -224 -179 -100 -55 0
{0} -230 -179 -106 -55 0
{0} -236 -179 -112 -55 0
{0} -242 -179 -118 -55 0
{0} -248 -179 -124 -55 0
{0} -195 -180 -71 -56 0
{0} -202 -180 -78 -56 0
{0} -211 -180 -87 -56 0
{0} -220 -180 -96 -56 0
{0} -227 -180 -103 -56 0
{0} -236 -180 -112 -56 0
{0} -245 -180 -121 -56 0
{0} -183 -181 -59 -57 0
{0} -190 -181 -66 -57 0
{0} -194 -181 -70 -57 0
{0} -203 -181 -79 -57 0
{0} -207 -181 -83 -57 0
{0} -211 -181 -87 -57 0
{0} -215 -181 -91 -57 0
{0} -219 -181 -95 -57 0
{0} -228 -181 -104 -57 0
{0} -232 -181 -108 -57 0
{0} -236 -181 -112 -57 0
{0} -240 -181 -116 -57 0
{0} -244 -181 -120 -57 0
{0} -185 -182 -61 -58 0
{0} -186 -182 -62 -58 0
{0} -187 -182 -63 -58 0
{0} -188 -182 -64 -58 0
{0} -209 -182 -85 -58 0
{0} -210 -182 -86 -58 0
{0} -211 -182 -87 -58 0
{0} -212 -182 -88 -58 0
{0} -213 -182 -89 -58 0
{0} -234 -182 -110 -58 0
{0} -235 -182 -111 -58 0
{0} -236 -182 -112 -58 0
{0} -237 -182 -113 -58 0
{0} -238 -182 -114 -58 0
{0} -192 -183 -68 -59 0
{0} -198 -183 -74 -59 0
{0} -199 -183 -75 -59 0
{0} -205 -183 -81 -59 0
{0} -211 -183 -87 -59 0
{0} -217 -183 -93 -59 0
{0} -223 -183 -99 -59 0
{0} -224 -183 -100 -59 0
{0} -230 -183 -106 -59 0
{0} -236 -183 -112 -59 0
{0} -242 -183 -118 -59 0
{0} -248 -183 -124 -59 0
{0} -197 -184 -73 -60 0
{0} -200 -184 -76 -60 0
{0} -211 -184 -87 -60 0
{0} -222 -184 -98 -60 0
{0} -225 -184 -101 -60 0
{0} -236 -184 -112 -60 0
{0} -247 -184 -123 -60 0
{0} -191 -185 -67 -61 0
{0} -196 -185 -72 -61 0
{0} -201 -185 -77 -61 0
{0} -206 -185 -82 -61 0
{0} -211 -185 -87 -61 0
{0} -216 -185 -92 -61 0
{0} -221 -185 -97 -61 0
{0} -226 -185 -102 -61 0
{0} -231 -185 -107 -61 0
{0} -236 -185 -112 -61 0
{0} -241 -185 -117 -61 0
{0} -246 -185 -122 -61 0
{0} -191 -186 -67 -62 0
{0} -196 -186 -72 -62 0
{0} -201 -186 -77 -62 0
{0} -206 -186 -82 -62 0
{0} -211 -186 -87 -62 0
{0} -216 -186 -92 -62 0
{0} -221 -186 -97 -62 0
{0} -226 -186 -102 -62 0
{0} -231 -186 -107 -62 0
{0} -236 -186 -112 -62 0
{0} -241 -186 -117 -62 0
{0} -246 -186 -122 -62 0
{0} -191 -187 -67 -63 0
{0} -196 -187 -72 -63 0
{0} -201 -187 -77 -63 0
{0} -206 -187 -82 -63 0
{0} -211 -187 -87 -63 0
{0} -216 -187 -92 -63 0
{0} -221 -187 -97 -63 0
{0} -226 -187 -102 -63 0
{0} -231 -187 -107 -63 0
{0} -236 -187 -112 -63 0
{0} -241 -187 -117 -63 0
{0} -246 -187 -122 -63 0
{0} -191 -188 -67 -64 0
{0} -196 -188 -72 -64 0
{0} -201 -188 -77 -64 0
{0} -206 -188 -82 -64 0
{0} -211 -188 -87 -64 0
{0} -216 -188 -92 -64 0
{0} -221 -188 -97 -64 0
{0} -226 -188 -102 -64 0
{0} -231 -188 -107 -64 0
{0} -236 -188 -112 -64 0
{0} -241 -188 -117 -64 0
{0} -246 -188 -122 -64 0
{0} -197 -189 -73 -65 0
{0} -200 -189 -76 -65 0
{0} -211 -189 -87 -65 0
{0} -222 -189 -98 -65 0
{0} -225 -189 -101 -65 0
{0} -236 -189 -112 -65 0
{0} -247 -189 -123 -65 0
{0} -192 -190 -68 -66 0
{0} -198 -190 -74 -66 0
{0} -199 -190 -75 -66 0
{0} -205 -190 -81 -66 0
{0} -211 -190 -87 -66 0
{0} -217 -190 -93 -66 0
{0} -223 -190 -99 -66 0
{0} -224 -190 -100 -66 0
{0} -230 -190 -106 -66 0
{0} -236 -190 -112 -66 0
{0} -242 -190 -118 -66 0
{0} -248 -190 -124 -66 0
{0} -209 -191 -85 -67 0
{0} -210 -191 -86 -67 0
{0} -211 -191 -87 -67 0
{0} -212 -191 -88 -67 0
{0} -213 -191 -89 -67 0
{0} -234 -191 -110 -67 0
{0} -235 -191 -111 -67 0
{0} -236 -191 -112 -67 0
{0} -237 -191 -113 -67 0
{0} -238 -191 -114 -67 0
{0} -194 -192 -70 -68 0
{0} -203 -192 -79 -68 0
{0} -207 -192 -83 -68 0
{0} -211 -192 -87 -68 0
{0} -215 -192 -91 -68 0
{0} -219 -192 -95 -68 0
{0} -228 -192 -104 -68 0
{0} -232 -192 -108 -68 0
{0} -236 -192 -112 -68 0
{0} -240 -192 -116 -68 0
{0} -244 -192 -120 -68 0
{0} -195 -193 -71 -69 0
{0} -202 -193 -78 -69 0
{0} -211 -193 -87 -69 0
{0} -220 -193 -96 -69 0
{0} -227 -193 -103 -69 0
{0} -236 -193 -112 -69 0
{0} -245 -193 -121 -69 0
{0} -198 -194 -74 -70 0
{0} -199 -194 -75 -70 0
{0} -205 -194 -81 -70 0
{0} -211 -194 -87 -70 0
{0} -217 -194 -93 -70 0
{0} -223 -194 -99 -70 0
{0} -224 -194 -100 -70 0
{0} -230 -194 -106 -70 0
{0} -236 -194 -112 -70 0
{0} -242 -194 -118 -70 0
{0} -248 -194 -124 -70 0
{0} -204 -195 -80 -71 0
{0} -211 -195 -87 -71 0
{0} -218 -195 -94 -71 0
{0} -229 -195 -105 -71 0
{0} -236 -195 -112 -71 0
{0} -243 -195 -119 -71 0
{0} -209 -196 -85 -72 0
{0} -210 -196 -86 -72 0
{0} -211 -196 -87 -72 0
{0} -212 -196 -88 -72 0
{0} -213 -196 -89 -72 0
{0} -234 -196 -110 -72 0
{0} -235 -196 -111 -72 0
{0} -236 -196 -112 -72 0
{0} -237 -196 -113 -72 0
{0} -238 -196 -114 -72 0
{0} -208 -197 -84 -73 0
{0} -211 -197 -87 -73 0
{0} -214 -197 -90 -73 0
{0} -233 -197 -109 -73 0
{0} -236 -197 -112 -73 0
{0} -239 -197 -115 -73 0
{0} -203 -198 -79 -74 0
{0} -207 -198 -83 -74 0
{0} -211 -198 -87 -74 0
{0} -215 -198 -91 -74 0
{0} -219 -198 -95 -74 0
{0} -228 -198 -104 -74 0
{0} -232 -198 -108 -74 0
{0} -236 -198 -112 -74 0
{0} -240 -198 -116 -74 0
{0} -244 -198 -120 -74 0
{0} -237 -199 -113 -75 0
{0} -241 -199 -117 -75 0
{0} -212 -200 -88 -76 0
{0} -220 -200 -96 -76 0
{0} -238 -200 -114 -76 0
{0} -241 -200 -117 -76 0
{0} -239 -201 -115 -77 0
{0} -240 -201 -116 -77 0
{0} -241 -201 -117 -77 0
{0} -242 -201 -118 -77 0
{0} -243 -201 -119 -77 0
{0} -210 -202 -86 -78 0
{0} -222 -202 -98 -78 0
{0} -234 -202 -110 -78 0
{0} -241 -202 -117 -78 0
{0} -235 -203 -111 -79 0
{0} -241 -203 -117 -79 0
{0} -208 -204 -84 -80 0
{0} -216 -204 -92 -80 0
{0} -237 -204 -113 -80 0
{0} -246 -204 -122 -80 0
{0} -212 -205 -88 -81 0
{0} -216 -205 -92 -81 0
{0} -238 -205 -114 -81 0
{0} -246 -205 -122 -81 0
{0} -214 -206 -90 -82 0
{0} -215 -206 -91 -82 0
{0} -216 -206 -92 -82 0
{0} -217 -206 -93 -82 0
{0} -218 -206 -94 -82 0
{0} -244 -206 -120 -82 0
{0} -245 -206 -121 -82 0
{0} -246 -206 -122 -82 0
{0} -247 -206 -123 -82 0
{0} -248 -206 -124 -82 0
{0} -210 -207 -86 -83 0
{0} -216 -207 -92 -83 0
{0} -234 -207 -110 -83 0
{0} -246 -207 -122 -83 0
{0} -216 -208 -92 -84 0
{0} -235 -208 -111 -84 0
{0} -246 -208 -122 -84 0
{0} -227 -209 -103 -85 0
{0} -232 -209 -108 -85 0
{0} -237 -209 -113 -85 0
{0} -242 -209 -118 -85 0
{0} -247 -209 -123 -85 0
{0} -212 -210 -88 -86 0
{0} -217 -210 -93 -86 0
{0} -222 -210 -98 -86 0
{0} -228 -210 -104 -86 0
{0} -233 -210 -109 -86 0
{0} -238 -210 -114 -86 0
{0} -243 -210 -119 -86 0
{0} -248 -210 -124 -86 0
{0} -215 -212 -91 -88 0
{0} -220 -212 -96 -88 0
{0} -224 -212 -100 -88 0
{0} -229 -212 -105 -88 0
{0} -234 -212 -110 -88 0
{0} -239 -212 -115 -88 0
{0} -244 -212 -120 -88 0
{0} -225 -213 -101 -89 0
{0} -230 -213 -106 -89 0
{0} -235 -213 -111 -89 0
{0} -240 -213 -116 -89 0
{0} -245 -213 -121 -89 0
{0} -218 -214 -94 -90 0
{0} -226 -214 -102 -90 0
{0} -237 -214 -113 -90 0
{0} -226 -215 -102 -91 0
{0} -238 -215 -114 -91 0
{0} -224 -216 -100 -92 0
{0} -225 -216 -101 -92 0
{0} -226 -216 -102 -92 0
{0} -227 -216 -103 -92 0
{0} -228 -216 -104 -92 0
{0} -226 -217 -102 -93 0
{0} -234 -217 -110 -93 0
{0} -226 -218 -102 -94 0
{0} -235 -218 -111 -94 0
{0} -231 -219 -107 -95 0
{0} -237 -219 -113 -95 0
{0} -231 -220 -107 -96 0
{0} -238 -220 -114 -96 0
{0} -229 -221 -105 -97 0
{0} -230 -221 -106 -97 0
{0} -231 -221 -107 -97 0
{0} -232 -221 -108 -97 0
{0} -233 -221 -109 -97 0
{0} -231 -222 -107 -98 0
{0} -234 -222 -110 -98 0
{0} -231 -223 -107 -99 0
{0} -235 -223 -111 -99 0
{0} -238 -224 -114 -100 0
{0} -246 -224 -122 -100 0
{0} -246 -225 -122 -101 0
{0} -244 -226 -120 -102 0
{0} -245 -226 -121 -102 0
{0} -246 -226 -122 -102 0
{0} -247 -226 -123 -102 0
{0} -248 -226 -124 -102 0
{0} -246 -227 -122 -103 0
{0} -234 -228 -110 -104 0
{0} -246 -228 -122 -104 0
{0} -238 -229 -114 -105 0
{0} -242 -230 -118 -106 0
{0} -240 -232 -116 -108 0
{0} -234 -233 -110 -109 0
{0} -238 -234 -114 -110 0
{0} -243 -234 -119 -110 0
{0} -248 -234 -124 -110 0
{0} -239 -238 -115 -114 0
{0} -244 -238 -120 -114 0
{0} -61 -23 -3 127 147 185 0
{0} -62 -23 -3 127 147 186 0
{0} -63 -23 -3 127 147 187 0
{0} -64 -23 -3 127 147 188 0
{0} -45 -41 -3 127 165 169 0
{0} -80 -41 -3 127 165 204 0
{0} -61 -43 -3 127 167 185 0
{0} -62 -43 -3 127 167 186 0
{0} -63 -43 -3 127 167 187 0
{0} -64 -43 -3 127 167 188 0
{0} -84 -45 -3 127 169 208 0
{0} -82 -61 -3 127 185 206 0
{0} -102 -61 -3 127 185 226 0
{0} -82 -62 -3 127 186 206 0
{0} -102 -62 -3 127 186 226 0
{0} -82 -63 -3 127 187 206 0
{0} -102 -63 -3 127 187 226 0
{0} -82 -64 -3 127 188 206 0
{0} -102 -64 -3 127 188 226 0
{0} -84 -80 -3 127 204 208 0
{0} -55 -19 -7 131 143 179 0
{0} -59 -19 -7 131 143 183 0
{0} -66 -19 -7 131 143 190 0
{0} -70 -19 -7 131 143 194 0
{0} -106 -55 -7 131 179 230 0
{0} -106 -59 -7 131 183 230 0
{0} -106 -66 -7 131 190 230 0
{0} -106 -70 -7 131 194 230 0
{0} -61 -48 -8 132 172 185 0
{0} -62 -48 -8 132 172 186 0
{0} -63 -48 -8 132 172 187 0
{0} -64 -48 -8 132 172 188 0
{0} -77 -61 -8 132 185 201 0
{0} -77 -62 -8 132 186 201 0
{0} -77 -63 -8 132 187 201 0
{0} -77 -64 -8 132 188 201 0
{0} -51 -17 -9 133 141 175 0
{0} -57 -17 -9 133 141 181 0
{0} -68 -17 -9 133 141 192 0
{0} -74 -17 -9 133 141 198 0
{0} -108 -51 -9 133 175 232 0
{0} -108 -57 -9 133 181 232 0
{0} -108 -68 -9 133 192 232 0
{0} -108 -74 -9 133 198 232 0
{0} -53 -15 -11 135 139 177 0
{0} -58 -15 -11 135 139 182 0
{0} -67 -15 -11 135 139 191 0
{0} -72 -15 -11 135 139 196 0
{0} -49 -29 -11 135 153 173 0
{0} -76 -29 -11 135 153 200 0
{0} -53 -39 -11 135 163 177 0
{0} -58 -39 -11 135 163 182 0
{0} -67 -39 -11 135 163 191 0
{0} -72 -39 -11 135 163 196 0
{0} -96 -49 -11 135 173 220 0
{0} -86 -53 -11 135 177 210 0
{0} -110 -53 -11 135 177 234 0
{0} -86 -58 -11 135 182 210 0
{0} -110 -58 -11 135 182 234 0
{0} -86 -67 -11 135 191 210 0
{0} -110 -67 -11 135 191 234 0
{0} -86 -72 -11 135 196 210 0
{0} -110 -72 -11 135 196 234 0
{0} -96 -76 -11 135 200 220 0
{0} -53 -40 -12 136 164 177 0
{0} -58 -40 -12 136 164 182 0
{0} -67 -40 -12 136 164 191 0
{0} -72 -40 -12 136 164 196 0
{0} -85 -53 -12 136 177 209 0
{0} -85 -58 -12 136 182 209 0
{0} -85 -67 -12 136 191 209 0
{0} -85 -72 -12 136 196 209 0
{0} -55 -51 -13 137 175 179 0
{0} -59 -51 -13 137 175 183 0
{0} -66 -51 -13 137 175 190 0
{0} -70 -51 -13 137 175 194 0
{0} -60 -52 -13 137 176 184 0
{0} -65 -52 -13 137 176 189 0
{0} -61 -53 -13 137 177 185 0
{0} -62 -53 -13 137 177 186 0
{0} -63 -53 -13 137 177 187 0
{0} -64 -53 -13 137 177 188 0
{0} -56 -54 -13 137 178 180 0
{0} -69 -54 -13 137 178 193 0
{0} -57 -55 -13 137 179 181 0
{0} -68 -55 -13 137 179 192 0
{0} -74 -55 -13 137 179 198 0
{0} -71 -56 -13 137 180 195 0
{0} -59 -57 -13 137 181 183 0
{0} -66 -57 -13 137 181 190 0
{0} -70 -57 -13 137 181 194 0
{0} -61 -58 -13 137 182 185 0
{0} -62 -58 -13 137 182 186 0
{0} -63 -58 -13 137 182 187 0
{0} -64 -58 -13 137 182 188 0
{0} -68 -59 -13 137 183 192 0
{0} -74 -59 -13 137 183 198 0
{0} -73 -60 -13 137 184 197 0
{0} -67 -61 -13 137 185 191 0
{0} -72 -61 -13 137 185 196 0
{0} -67 -62 -13 137 186 191 0
{0} -72 -62 -13 137 186 196 0
{0} -67 -63 -13 137 187 191 0
{0} -72 -63 -13 137 187 196 0
{0} -67 -64 -13 137 188 191 0
{0} -72 -64 -13 137 188 196 0
{0} -73 -65 -13 137 189 197 0
{0} -68 -66 -13 137 190 192 0
{0} -74 -66 -13 137 190 198 0
{0} -70 -68 -13 137 192 194 0
{0} -71 -69 -13 137 193 195 0
{0} -74 -70 -13 137 194 198 0
{0} -53 -36 -14 138 160 177 0
{0} -58 -36 -14 138 160 182 0
{0} -67 -36 -14 138 160 191 0
{0} -72 -36 -14 138 160 196 0
{0} -89 -53 -14 138 177 213 0
{0} -89 -58 -14 138 182 213 0
{0} -89 -67 -14 138 191 213 0
{0} -89 -72 -14 138 196 213 0
{0} -47 -27 -15 139 151 171 0
{0} -78 -27 -15 139 151 202 0
{0} -53 -37 -15 139 161 177 0
{0} -58 -37 -15 139 161 182 0
{0} -67 -37 -15 139 161 191 0
{0} -72 -37 -15 139 161 196 0
{0} -98 -47 -15 139 171 222 0
{0} -88 -53 -15 139 177 212 0
{0} -114 -53 -15 139 177 238 0
{0} -88 -58 -15 139 182 212 0
{0} -114 -58 -15 139 182 238 0
{0} -88 -67 -15 139 191 212 0
{0} -114 -67 -15 139 191 238 0
{0} -88 -72 -15 139 196 212 0
{0} -114 -72 -15 139 196 238 0
{0} -98 -78 -15 139 202 222 0
{0} -116 -51 -17 141 175 240 0
{0} -116 -57 -17 141 181 240 0
{0} -116 -68 -17 141 192 240 0
{0} -116 -74 -17 141 198 240 0
{0} -61 -28 -18 142 152 185 0
{0} -62 -28 -18 142 152 186 0
{0} -63 -28 -18 142 152 187 0
{0} -64 -28 -18 142 152 188 0
{0} -97 -61 -18 142 185 221 0
{0} -97 -62 -18 142 186 221 0
{0} -97 -63 -18 142 187 221 0
{0} -97 -64 -18 142 188 221 0
{0} -118 -55 -19 143 179 242 0
{0} -118 -59 -19 143 183 242 0
{0} -118 -66 -19 143 190 242 0
{0} -118 -70 -19 143 194 242 0
{0} -35 -31 -23 147 155 159 0
{0} -90 -31 -23 147 155 214 0
{0} -61 -33 -23 147 157 185 0
{0} -62 -33 -23 147 157 186 0
{0} -63 -33 -23 147 157 187 0
{0} -64 -33 -23 147 157 188 0
{0} -94 -35 -23 147 159 218 0
{0} -92 -61 -23 147 185 216 0
{0} -122 -61 -23 147 185 246 0
{0} -92 -62 -23 147 186 216 0
{0} -122 -62 -23 147 186 246 0
{0} -92 -63 -23 147 187 216 0
{0} -122 -63 -23 147 187 246 0
{0} -92 -64 -23 147 188 216 0
{0} -122 -64 -23 147 188 246 0
{0} -94 -90 -23 147 214 218 0
{0} -47 -39 -27 151 163 171 0
{0} -78 -39 -27 151 163 202 0
{0} -86 -47 -27 151 171 210 0
{0} -110 -47 -27 151 171 234 0
{0} -86 -78 -27 151 202 210 0
{0} -110 -78 -27 151 202 234 0
{0} -107 -61 -28 152 185 231 0
{0} -107 -62 -28 152 186 231 0
{0} -107 -63 -28 152 187 231 0
{0} -107 -64 -28 152 188 231 0
{0} -49 -37 -29 153 161 173 0
{0} -76 -37 -29 153 161 200 0
{0} -88 -49 -29 153 173 212 0
{0} -114 -49 -29 153 173 238 0
{0} -88 -76 -29 153 200 212 0
{0} -114 -76 -29 153 200 238 0
{0} -43 -35 -31 155 159 167 0
{0} -82 -35 -31 155 159 206 0
{0} -102 -35 -31 155 159 226 0
{0} -90 -43 -31 155 167 214 0
{0} -90 -82 -31 155 206 214 0
{0} -102 -90 -31 155 214 226 0
{0} -45 -41 -33 157 165 169 0
{0} -80 -41 -33 157 165 204 0
{0} -61 -43 -33 157 167 185 0
{0} -62 -43 -33 157 167 186 0
{0} -63 -43 -33 157 167 187 0
{0} -64 -43 -33 157 167 188 0
{0} -84 -45 -33 157 169 208 0
{0} -82 -61 -33 157 185 206 0
{0} -102 -61 -33 157 185 226 0
{0} -82 -62 -33 157 186 206 0
{0} -102 -62 -33 157 186 226 0
{0} -82 -63 -33 157 187 206 0
{0} -102 -63 -33 157 187 226 0
{0} -82 -64 -33 157 188 206 0
{0} -102 -64 -33 157 188 226 0
{0} -84 -80 -33 157 204 208 0
{0} -94 -43 -35 159 167 218 0
{0} -94 -82 -35 159 206 218 0
{0} -102 -94 -35 159 218 226 0
{0} -111 -53 -36 160 177 235 0
{0} -111 -58 -36 160 182 235 0
{0} -111 -67 -36 160 191 235 0
{0} -111 -72 -36 160 196 235 0
{0} -53 -39 -37 161 163 177 0
{0} -58 -39 -37 161 163 182 0
{0} -67 -39 -37 161 163 191 0
{0} -72 -39 -37 161 163 196 0
{0} -96 -49 -37 161 173 220 0
{0} -86 -53 -37 161 177 210 0
{0} -110 -53 -37 161 177 234 0
{0} -86 -58 -37 161 182 210 0
{0} -110 -58 -37 161 182 234 0
{0} -86 -67 -37 161 191 210 0
{0} -110 -67 -37 161 191 234 0
{0} -86 -72 -37 161 196 210 0
{0} -110 -72 -37 161 196 234 0
{0} -96 -76 -37 161 200 220 0
{0} -55 -51 -38 162 175 179 0
{0} -59 -51 -38 162 175 183 0
{0} -66 -51 -38 162 175 190 0
{0} -70 -51 -38 162 175 194 0
{0} -60 -52 -38 162 176 184 0
{0} -65 -52 -38 162 176 189 0
{0} -61 -53 -38 162 177 185 0
{0} -62 -53 -38 162 177 186 0
{0} -63 -53 -38 162 177 187 0
{0} -64 -53 -38 162 177 188 0
{0} -56 -54 -38 162 178 180 0
{0} -69 -54 -38 162 178 193 0
{0} -57 -55 -38 162 179 181 0
{0} -68 -55 -38 162 179 192 0
{0} -74 -55 -38 162 179 198 0
{0} -71 -56 -38 162 180 195 0
{0} -59 -57 -38 162 181 183 0
{0} -66 -57 -38 162 181 190 0
{0} -70 -57 -38 162 181 194 0
{0} -61 -58 -38 162 182 185 0
{0} -62 -58 -38 162 182 186 0
{0} -63 -58 -38 162 182 187 0
{0} -64 -58 -38 162 182 188 0
{0} -68 -59 -38 162 183 192 0
{0} -74 -59 -38 162 183 198 0
{0} -73 -60 -38 162 184 197 0
{0} -67 -61 -38 162 185 191 0
{0} -72 -61 -38 162 185 196 0
{0} -67 -62 -38 162 186 191 0
{0} -72 -62 -38 162 186 196 0
{0} -67 -63 -38 162 187 191 0
{0} -72 -63 -38 162 187 196 0
{0} -67 -64 -38 162 188 191 0
{0} -72 -64 -38 162 188 196 0
{0} -73 -65 -38 162 189 197 0
{0} -68 -66 -38 162 190 192 0
{0} -74 -66 -38 162 190 198 0
{0} -70 -68 -38 162 192 194 0
{0} -71 -69 -38 162 193 195 0
{0} -74 -70 -38 162 194 198 0
{0} -98 -47 -39 163 171 222 0
{0} -88 -53 -39 163 177 212 0
{0} -114 -53 -39 163 177 238 0
{0} -88 -58 -39 163 182 212 0
{0} -114 -58 -39 163 182 238 0
{0} -88 -67 -39 163 191 212 0
{0} -114 -67 -39 163 191 238 0
{0} -88 -72 -39 163 196 212 0
{0} -114 -72 -39 163 196 238 0
{0} -98 -78 -39 163 202 222 0
{0} -113 -53 -40 164 177 237 0
{0} -113 -58 -40 164 182 237 0
{0} -113 -67 -40 164 191 237 0
{0} -113 -72 -40 164 196 237 0
{0} -92 -45 -41 165 169 216 0
{0} -122 -45 -41 165 169 246 0
{0} -92 -80 -41 165 204 216 0
{0} -122 -80 -41 165 204 246 0
{0} -92 -61 -43 167 185 216 0
{0} -122 -61 -43 167 185 246 0
{0} -92 -62 -43 167 186 216 0
{0} -122 -62 -43 167 186 246 0
{0} -92 -63 -43 167 187 216 0
{0} -122 -63 -43 167 187 246 0
{0} -92 -64 -43 167 188 216 0
{0} -122 -64 -43 167 188 246 0
{0} -94 -90 -43 167 214 218 0
{0} -92 -84 -45 169 208 216 0
{0} -122 -84 -45 169 208 246 0
{0} -98 -86 -47 171 210 222 0
{0} -110 -98 -47 171 222 234 0
{0} -117 -61 -48 172 185 241 0
{0} -117 -62 -48 172 186 241 0
{0} -117 -63 -48 172 187 241 0
{0} -117 -64 -48 172 188 241 0
{0} -96 -88 -49 173 212 220 0
{0} -114 -96 -49 173 220 238 0
{0} -87 -55 -51 175 179 211 0
{0} -112 -55 -51 175 179 236 0
{0} -87 -59 -51 175 183 211 0
{0} -112 -59 -51 175 183 236 0
{0} -87 -66 -51 175 190 211 0
{0} -112 -66 -51 175 190 236 0
{0} -87 -70 -51 175 194 211 0
{0} -112 -70 -51 175 194 236 0
{0} -116 -108 -51 175 232 240 0
{0} -87 -60 -52 176 184 211 0
{0} -112 -60 -52 176 184 236 0
{0} -87 -65 -52 176 189 211 0
{0} -112 -65 -52 176 189 236 0
{0} -87 -61 -53 177 185 211 0
{0} -112 -61 -53 177 185 236 0
{0} -87 -62 -53 177 186 211 0
{0} -112 -62 -53 177 186 236 0
{0} -87 -63 -53 177 187 211 0
{0} -112 -63 -53 177 187 236 0
{0} -87 -64 -53 177 188 211 0
{0} -112 -64 -53 177 188 236 0
{0} -113 -85 -53 177 209 237 0
{0} -88 -86 -53 177 210 212 0
{0} -114 -86 -53 177 210 238 0
{0} -110 -88 -53 177 212 234 0
{0} -111 -89 -53 177 213 235 0
{0} -114 -110 -53 177 234 238 0
{0} -87 -56 -54 178 180 211 0
{0} -112 -56 -54 178 180 236 0
{0} -87 -69 -54 178 193 211 0
{0} -112 -69 -54 178 193 236 0
{0} -87 -57 -55 179 181 211 0
{0} -112 -57 -55 179 181 236 0
{0} -87 -68 -55 179 192 211 0
{0} -112 -68 -55 179 192 236 0
{0} -87 -74 -55 179 198 211 0
{0} -112 -74 -55 179 198 236 0
{0} -118 -106 -55 179 230 242 0
{0} -87 -71 -56 180 195 211 0
{0} -112 -71 -56 180 195 236 0
{0} -87 -59 -57 181 183 211 0
{0} -112 -59 -57 181 183 236 0
{0} -87 -66 -57 181 190 211 0
{0} -112 -66 -57 181 190 236 0
{0} -87 -70 -57 181 194 211 0
{0} -112 -70 -57 181 194 236 0
{0} -116 -108 -57 181 232 240 0
{0} -87 -61 -58 182 185 211 0
{0} -112 -61 -58 182 185 236 0
{0} -87 -62 -58 182 186 211 0
{0} -112 -62 -58 182 186 236 0
{0} -87 -63 -58 182 187 211 0
{0} -112 -63 -58 182 187 236 0
{0} -87 -64 -58 182 188 211 0
{0} -112 -64 -58 182 188 236 0
{0} -113 -85 -58 182 209 237 0
{0} -88 -86 -58 182 210 212 0
{0} -114 -86 -58 182 210 238 0
{0} -110 -88 -58 182 212 234 0
{0} -111 -89 -58 182 213 235 0
{0} -114 -110 -58 182 234 238 0
{0} -87 -68 -59 183 192 211 0
{0} -112 -68 -59 183 192 236 0
{0} -87 -74 -59 183 198 211 0
{0} -112 -74 -59 183 198 236 0
{0} -118 -106 -59 183 230 242 0
{0} -87 -73 -60 184 197 211 0
{0} -112 -73 -60 184 197 236 0
{0} -87 -67 -61 185 191 211 0
{0} -112 -67 -61 185 191 236 0
{0} -87 -72 -61 185 196 211 0
{0} -112 -72 -61 185 196 236 0
{0} -117 -77 -61 185 201 241 0
{0} -92 -82 -61 185 206 216 0
{0} -122 -82 -61 185 206 246 0
{0} -102 -92 -61 185 216 226 0
{0} -107 -97 -61 185 221 231 0
{0} -122 -102 -61 185 226 246 0
{0} -87 -67 -62 186 191 211 0
{0} -112 -67 -62 186 191 236 0
{0} -87 -72 -62 186 196 211 0
{0} -112 -72 -62 186 196 236 0
{0} -117 -77 -62 186 201 241 0
{0} -92 -82 -62 186 206 216 0
{0} -122 -82 -62 186 206 246 0
{0} -102 -92 -62 186 216 226 0
{0} -107 -97 -62 186 221 231 0
{0} -122 -102 -62 186 226 246 0
{0} -87 -67 -63 187 191 211 0
{0} -112 -67 -63 187 191 236 0
{0} -87 -72 -63 187 196 211 0
{0} -112 -72 -63 187 196 236 0
{0} -117 -77 -63 187 201 241 0
{0} -92 -82 -63 187 206 216 0
{0} -122 -82 -63 187 206 246 0
{0} -102 -92 -63 187 216 226 0
{0} -107 -97 -63 187 221 231 0
{0} -122 -102 -63 187 226 246 0
{0} -87 -67 -64 188 191 211 0
{0} -112 -67 -64 188 191 236 0
{0} -87 -72 -64 188 196 211 0
{0} -112 -72 -64 188 196 236 0
{0} -117 -77 -64 188 201 241 0
{0} -92 -82 -64 188 206 216 0
{0} -122 -82 -64 188 206 246 0
{0} -102 -92 -64 188 216 226 0
{0} -107 -97 -64 188 221 231 0
{0} -122 -102 -64 188 226 246 0
{0} -87 -73 -65 189 197 211 0
{0} -112 -73 -65 189 197 236 0
{0} -87 -68 -66 190 192 211 0
{0} -112 -68 -66 190 192 236 0
{0} -87 -74 -66 190 198 211 0
{0} -112 -74 -66 190 198 236 0
{0} -118 -106 -66 190 230 242 0
{0} -113 -85 -67 191 209 237 0
{0} -88 -86 -67 191 210 212 0
{0} -114 -86 -67 191 210 238 0
{0} -110 -88 -67 191 212 234 0
{0} -111 -89 -67 191 213 235 0
{0} -114 -110 -67 191 234 238 0
{0} -87 -70 -68 192 194 211 0
{0} -112 -70 -68 192 194 236 0
{0} -116 -108 -68 192 232 240 0
{0} -87 -71 -69 193 195 211 0
{0} -112 -71 -69 193 195 236 0
{0} -87 -74 -70 194 198 211 0
{0} -112 -74 -70 194 198 236 0
{0} -118 -106 -70 194 230 242 0
{0} -113 -85 -72 196 209 237 0
{0} -88 -86 -72 196 210 212 0
{0} -114 -86 -72 196 210 238 0
{0} -110 -88 -72 196 212 234 0
{0} -111 -89 -72 196 213 235 0
{0} -114 -110 -72 196 234 238 0
{0} -116 -108 -74 198 232 240 0
{0} -96 -88 -76 200 212 220 0
{0} -114 -96 -76 200 220 238 0
{0} -98 -86 -78 202 210 222 0
{0} -110 -98 -78 202 222 234 0
{0} -92 -84 -80 204 208 216 0
{0} -122 -84 -80 204 208 246 0
{0} -94 -90 -82 206 214 218 0
{0} -102 -94 -90 214 218 226 0
{1} 1 0
{2} 2 0
{3} 3 0
{4} 4 0
{5} 5 0
{6} 6 0
{7} 7 0
{8} 8 0
{9} 9 0
{10} 10 0
{11} 11 0
{12} 12 0
{13} 13 0
{14} 14 0
{15} 15 0
{16} 16 0
{17} 17 0
{18} 18 0
{19} 19 0
{20} 20 0
{21} 21 0
{22} 22 0
{23} 23 0
{24} 24 0
{25} 25 0
{26} 26 0
{27} 27 0
{28} 28 0
{29} 29 0
{30} 30 0
{31} 31 0
{32} 32 0
{33} 33 0
{34} 34 0
{35} 35 0
{36} 36 0
{37} 37 0
{38} 38 0
{39} 39 0
{40} 40 0
{41} 41 0
{42} 42 0
{43} 43 0
{44} 44 0
{45} 45 0
{46} 46 0
{47} 47 0
{48} 48 0
{49} 49 0
{50} 50 0
{51} 51 0
{52} 52 0
{53} 53 0
{54} 54 0
{55} 55 0
{56} 56 0
{57} 57 0
{58} 58 0
{59} 59 0
{60} 60 0
{61} 61 0
{62} 62 0
{63} 63 0
{64} 64 0
{65} 65 0
{66} 66 0
{67} 67 0
{68} 68 0
{69} 69 0
{70} 70 0
{71} 71 0
{72} 72 0
{73} 73 0
{74} 74 0
{75} 75 0
{76} 76 0
{77} 77 0
{78} 78 0
{79} 79 0
{80} 80 0
{81} 81 0
{82} 82 0
{83} 83 0
{84} 84 0
{85} 85 0
{86} 86 0
{87} 87 0
{88} 88 0
{89} 89 0
{90} 90 0
{91} 91 0
{92} 92 0
{93} 93 0
{94} 94 0
{95} 95 0
{96} 96 0
{97} 97 0
{98} 98 0
{99} 99 0
{100} 100 0
{101} 101 0
{102} 102 0
{103} 103 0
{104} 104 0
{105} 105 0
{106} 106 0
{107} 107 0
{108} 108 0
{109} 109 0
{110} 110 0
{111} 111 0
{112} 112 0
{113} 113 0
{114} 114 0
{115} 115 0
{116} 116 0
{117} 117 0
{118} 118 0
{119} 119 0
{120} 120 0
{121} 121 0
{122} 122 0
{123} 123 0
{124} 124 0
